Solutions/MP-67.sol
# Solution for model Master Problem
# Objective value = 5.4686255614726747e+02
theta[1] 0
theta[2] 0
theta[3] 0
theta[4] 0
theta[5] 0
theta[6] 0
theta[7] 0
theta[8] 0
theta[9] 0
theta[10] 0
theta[11] 0
theta[12] 0
theta[13] 0
theta[14] 0
theta[15] 0
theta[16] 0
theta[17] 0
theta[18] 1.2269938650306789e-02
theta[19] 0
theta[20] 0
theta[21] 0
theta[22] 0
theta[23] 0
theta[24] 0
theta[25] 0
theta[26] 3.2515337423312884e-01
theta[27] 0
theta[28] 0
theta[29] 6.7484662576687116e-01
theta[30] 0
theta[31] 0
theta[32] 0
theta[33] 0
theta[34] 5.6441717791411039e-01
theta[35] 0
theta[36] 3.2515337423312884e-01
theta[37] 3.4355828220858897e-01
theta[38] 0
theta[39] 0
theta[40] 1.2269938650306719e-02
theta[41] 0
theta[42] 2.5153374233128833e-01
theta[43] 3.2515337423312884e-01
theta[44] 6.1349693251532278e-03
theta[45] 0
theta[46] 0
theta[47] 6.1349693251533666e-03
theta[48] 0
theta[49] 1.2269938650306755e-01
theta[50] 3.3128834355828218e-01
theta[51] 6.1349693251533388e-03
theta[52] 0.00613496932515336
theta[53] 0
theta[54] 0
theta[55] 0
theta[56] 0
theta[57] 3.6809815950920244e-01
theta[58] 4.2944785276073622e-02
theta[59] 0
theta[60] 3.4355828220858897e-01
theta[61] 2.3926380368098166e-01
theta[62] 3.3742331288343563e-01
theta[63] 1.9631901840490795e-01
theta[64] 1.1656441717791410e-01
theta[65] 0
theta[66] 3.1901840490797562e-01
theta[67] 6.7484662576687143e-02
